100 8
242 549
531 165
510 842
787 591
124 344
170 285
803 109
511 585
707 163
407 484
755 452
912 597
838 524
460 375
295 275
251 599
87 807
221 829
419 504
219 405
221 347
603 316
688 175
605 159
523 936
707 334
341 613
811 198
361 586
873 482
408 679
256 272
619 201
815 257
769 166
678 802
287 546
603 735
115 620
416 332
631 737
766 724
583 457
537 522
299 545
804 259
99 198
206 184
691 72
275 518
594 872
38 208
929 629
437 638
613 307
475 886
355 556
624 753
420 526
646 750
522 429
453 364
823 621
536 504
357 253
252 651
550 435
437 474
262 571
629 509
161 869
697 491
309 582
276 314
572 562
515 531
650 484
593 869
534 153
559 840
604 558
159 939
634 468
125 253
78 161
551 802
161 582
763 621
118 227
137 637
677 43
703 723
254 655
191 349
598 180
219 306
687 218
76 897
394 544
246 304
